%BLOCK LATTICE_CART
ang    # angstrom units
  6.817900000000     0.000000000000     0.000000000000   
  0.000000000000     16.143000000000    0.000000000000   
  0.000000000000     0.000000000000     13.939000000000  
%ENDBLOCK LATTICE_CART

%BLOCK POSITIONS_FRAC
V      0.050050000000     0.125000000000     0.369580000000   
O      0.243775000000     0.125000000000     0.345800000000   
O      0.077950000000     0.081600000000     0.327750000000   
O      0.035375000000     0.081300000000     0.416750000000   
C      0.080625000000     0.016450000000     0.263050000000   
H      0.050375000000     0.027700000000     0.271250000000   
C      0.166875000000     0.016150000000     0.268450000000   
H      0.195750000000     0.027400000000     0.280550000000   
C      0.122775000000     0.032450000000     0.282500000000   
C      0.119525000000     0.068300000000     0.316650000000   
V      0.074950000000     0.375000000000     0.119580000000   
O      0.131225000000     0.375000000000     0.095800000000   
O      0.047050000000     0.418400000000     0.077750000000   
O      0.089625000000     0.418700000000     0.166750000000   
C      0.044375000000     0.483550000000     0.013050000000   
H      0.074625000000     0.472300000000     0.021250000000   
C      0.208125000000     0.483850000000     0.018450000000   
H      0.179250000000     0.472600000000     0.030550000000   
C      0.002225000000     0.467550000000     0.032500000000   
C      0.005475000000     0.431700000000     0.066650000000   
V      0.175050000000     0.125000000000     0.380420000000   
O      0.118775000000     0.125000000000     0.404200000000   
O      0.202950000000     0.168400000000     0.422250000000   
O      0.160375000000     0.168700000000     0.333250000000   
C      0.205625000000     0.233550000000     0.486950000000   
H      0.175375000000     0.222300000000     0.478750000000   
C      0.041875000000     0.233850000000     0.481550000000   
H      0.070750000000     0.222600000000     0.469450000000   
C      0.247775000000     0.217550000000     0.467500000000   
C      0.244525000000     0.181700000000     0.433350000000   
V      0.199950000000     0.375000000000     0.130420000000   
O      0.006225000000     0.375000000000     0.154200000000   
O      0.172050000000     0.331600000000     0.172250000000   
O      0.214625000000     0.331300000000     0.083250000000   
C      0.169375000000     0.266450000000     0.236950000000   
H      0.199625000000     0.277700000000     0.228750000000   
C      0.083125000000     0.266150000000     0.231550000000   
H      0.054250000000     0.277400000000     0.219450000000   
C      0.127225000000     0.282450000000     0.217500000000   
C      0.130475000000     0.318300000000     0.183350000000   
O      0.172050000000     0.418400000000     0.172250000000   
O      0.214625000000     0.418700000000     0.083250000000   
C      0.169375000000     0.483550000000     0.236950000000   
H      0.199625000000     0.472300000000     0.228750000000   
C      0.083125000000     0.483850000000     0.231550000000   
H      0.054250000000     0.472600000000     0.219450000000   
C      0.127225000000     0.467550000000     0.217500000000   
C      0.130475000000     0.431700000000     0.183350000000   
O      0.202950000000     0.081600000000     0.422250000000   
O      0.160375000000     0.081300000000     0.333250000000   
C      0.205625000000     0.016450000000     0.486950000000   
H      0.175375000000     0.027700000000     0.478750000000   
C      0.041875000000     0.016150000000     0.481550000000   
H      0.070750000000     0.027400000000     0.469450000000   
C      0.247775000000     0.032450000000     0.467500000000   
C      0.244525000000     0.068300000000     0.433350000000   
O      0.047050000000     0.331600000000     0.077750000000   
O      0.089625000000     0.331300000000     0.166750000000   
C      0.044375000000     0.266450000000     0.013050000000   
H      0.074625000000     0.277700000000     0.021250000000   
C      0.208125000000     0.266150000000     0.018450000000   
H      0.179250000000     0.277400000000     0.030550000000   
C      0.002225000000     0.282450000000     0.032500000000   
C      0.005475000000     0.318300000000     0.066650000000   
O      0.077950000000     0.168400000000     0.327750000000   
O      0.035375000000     0.168700000000     0.416750000000   
C      0.080625000000     0.233550000000     0.263050000000   
H      0.050375000000     0.222300000000     0.271250000000   
C      0.166875000000     0.233850000000     0.268450000000   
H      0.195750000000     0.222600000000     0.280550000000   
C      0.122775000000     0.217550000000     0.282500000000   
C      0.119525000000     0.181700000000     0.316650000000   
V      0.050050000000     0.125000000000     0.869580000000   
O      0.243775000000     0.125000000000     0.845800000000   
O      0.077950000000     0.081600000000     0.827750000000   
O      0.035375000000     0.081300000000     0.916750000000   
C      0.080625000000     0.016450000000     0.763050000000   
H      0.050375000000     0.027700000000     0.771250000000   
C      0.166875000000     0.016150000000     0.768450000000   
H      0.195750000000     0.027400000000     0.780550000000   
C      0.122775000000     0.032450000000     0.782500000000   
C      0.119525000000     0.068300000000     0.816650000000   
V      0.074950000000     0.375000000000     0.619580000000   
O      0.131225000000     0.375000000000     0.595800000000   
O      0.047050000000     0.418400000000     0.577750000000   
O      0.089625000000     0.418700000000     0.666750000000   
C      0.044375000000     0.483550000000     0.513050000000   
H      0.074625000000     0.472300000000     0.521250000000   
C      0.208125000000     0.483850000000     0.518450000000   
H      0.179250000000     0.472600000000     0.530550000000   
C      0.002225000000     0.467550000000     0.532500000000   
C      0.005475000000     0.431700000000     0.566650000000   
V      0.175050000000     0.125000000000     0.880420000000   
O      0.118775000000     0.125000000000     0.904200000000   
O      0.202950000000     0.168400000000     0.922250000000   
O      0.160375000000     0.168700000000     0.833250000000   
C      0.205625000000     0.233550000000     0.986950000000   
H      0.175375000000     0.222300000000     0.978750000000   
C      0.041875000000     0.233850000000     0.981550000000   
H      0.070750000000     0.222600000000     0.969450000000   
C      0.247775000000     0.217550000000     0.967500000000   
C      0.244525000000     0.181700000000     0.933350000000   
V      0.199950000000     0.375000000000     0.630420000000   
O      0.006225000000     0.375000000000     0.654200000000   
O      0.172050000000     0.331600000000     0.672250000000   
O      0.214625000000     0.331300000000     0.583250000000   
C      0.169375000000     0.266450000000     0.736950000000   
H      0.199625000000     0.277700000000     0.728750000000   
C      0.083125000000     0.266150000000     0.731550000000   
H      0.054250000000     0.277400000000     0.719450000000   
C      0.127225000000     0.282450000000     0.717500000000   
C      0.130475000000     0.318300000000     0.683350000000   
O      0.172050000000     0.418400000000     0.672250000000   
O      0.214625000000     0.418700000000     0.583250000000   
C      0.169375000000     0.483550000000     0.736950000000   
H      0.199625000000     0.472300000000     0.728750000000   
C      0.083125000000     0.483850000000     0.731550000000   
H      0.054250000000     0.472600000000     0.719450000000   
C      0.127225000000     0.467550000000     0.717500000000   
C      0.130475000000     0.431700000000     0.683350000000   
O      0.202950000000     0.081600000000     0.922250000000   
O      0.160375000000     0.081300000000     0.833250000000   
C      0.205625000000     0.016450000000     0.986950000000   
H      0.175375000000     0.027700000000     0.978750000000   
C      0.041875000000     0.016150000000     0.981550000000   
H      0.070750000000     0.027400000000     0.969450000000   
C      0.247775000000     0.032450000000     0.967500000000   
C      0.244525000000     0.068300000000     0.933350000000   
O      0.047050000000     0.331600000000     0.577750000000   
O      0.089625000000     0.331300000000     0.666750000000   
C      0.044375000000     0.266450000000     0.513050000000   
H      0.074625000000     0.277700000000     0.521250000000   
C      0.208125000000     0.266150000000     0.518450000000   
H      0.179250000000     0.277400000000     0.530550000000   
C      0.002225000000     0.282450000000     0.532500000000   
C      0.005475000000     0.318300000000     0.566650000000   
O      0.077950000000     0.168400000000     0.827750000000   
O      0.035375000000     0.168700000000     0.916750000000   
C      0.080625000000     0.233550000000     0.763050000000   
H      0.050375000000     0.222300000000     0.771250000000   
C      0.166875000000     0.233850000000     0.768450000000   
H      0.195750000000     0.222600000000     0.780550000000   
C      0.122775000000     0.217550000000     0.782500000000   
C      0.119525000000     0.181700000000     0.816650000000   
V      0.050050000000     0.625000000000     0.369580000000   
O      0.243775000000     0.625000000000     0.345800000000   
O      0.077950000000     0.581600000000     0.327750000000   
O      0.035375000000     0.581300000000     0.416750000000   
C      0.080625000000     0.516450000000     0.263050000000   
H      0.050375000000     0.527700000000     0.271250000000   
C      0.166875000000     0.516150000000     0.268450000000   
H      0.195750000000     0.527400000000     0.280550000000   
C      0.122775000000     0.532450000000     0.282500000000   
C      0.119525000000     0.568300000000     0.316650000000   
V      0.074950000000     0.875000000000     0.119580000000   
O      0.131225000000     0.875000000000     0.095800000000   
O      0.047050000000     0.918400000000     0.077750000000   
O      0.089625000000     0.918700000000     0.166750000000   
C      0.044375000000     0.983550000000     0.013050000000   
H      0.074625000000     0.972300000000     0.021250000000   
C      0.208125000000     0.983850000000     0.018450000000   
H      0.179250000000     0.972600000000     0.030550000000   
C      0.002225000000     0.967550000000     0.032500000000   
C      0.005475000000     0.931700000000     0.066650000000   
V      0.175050000000     0.625000000000     0.380420000000   
O      0.118775000000     0.625000000000     0.404200000000   
O      0.202950000000     0.668400000000     0.422250000000   
O      0.160375000000     0.668700000000     0.333250000000   
C      0.205625000000     0.733550000000     0.486950000000   
H      0.175375000000     0.722300000000     0.478750000000   
C      0.041875000000     0.733850000000     0.481550000000   
H      0.070750000000     0.722600000000     0.469450000000   
C      0.247775000000     0.717550000000     0.467500000000   
C      0.244525000000     0.681700000000     0.433350000000   
V      0.199950000000     0.875000000000     0.130420000000   
O      0.006225000000     0.875000000000     0.154200000000   
O      0.172050000000     0.831600000000     0.172250000000   
O      0.214625000000     0.831300000000     0.083250000000   
C      0.169375000000     0.766450000000     0.236950000000   
H      0.199625000000     0.777700000000     0.228750000000   
C      0.083125000000     0.766150000000     0.231550000000   
H      0.054250000000     0.777400000000     0.219450000000   
C      0.127225000000     0.782450000000     0.217500000000   
C      0.130475000000     0.818300000000     0.183350000000   
O      0.172050000000     0.918400000000     0.172250000000   
O      0.214625000000     0.918700000000     0.083250000000   
C      0.169375000000     0.983550000000     0.236950000000   
H      0.199625000000     0.972300000000     0.228750000000   
C      0.083125000000     0.983850000000     0.231550000000   
H      0.054250000000     0.972600000000     0.219450000000   
C      0.127225000000     0.967550000000     0.217500000000   
C      0.130475000000     0.931700000000     0.183350000000   
O      0.202950000000     0.581600000000     0.422250000000   
O      0.160375000000     0.581300000000     0.333250000000   
C      0.205625000000     0.516450000000     0.486950000000   
H      0.175375000000     0.527700000000     0.478750000000   
C      0.041875000000     0.516150000000     0.481550000000   
H      0.070750000000     0.527400000000     0.469450000000   
C      0.247775000000     0.532450000000     0.467500000000   
C      0.244525000000     0.568300000000     0.433350000000   
O      0.047050000000     0.831600000000     0.077750000000   
O      0.089625000000     0.831300000000     0.166750000000   
C      0.044375000000     0.766450000000     0.013050000000   
H      0.074625000000     0.777700000000     0.021250000000   
C      0.208125000000     0.766150000000     0.018450000000   
H      0.179250000000     0.777400000000     0.030550000000   
C      0.002225000000     0.782450000000     0.032500000000   
C      0.005475000000     0.818300000000     0.066650000000   
O      0.077950000000     0.668400000000     0.327750000000   
O      0.035375000000     0.668700000000     0.416750000000   
C      0.080625000000     0.733550000000     0.263050000000   
H      0.050375000000     0.722300000000     0.271250000000   
C      0.166875000000     0.733850000000     0.268450000000   
H      0.195750000000     0.722600000000     0.280550000000   
C      0.122775000000     0.717550000000     0.282500000000   
C      0.119525000000     0.681700000000     0.316650000000   
V      0.050050000000     0.625000000000     0.869580000000   
O      0.243775000000     0.625000000000     0.845800000000   
O      0.077950000000     0.581600000000     0.827750000000   
O      0.035375000000     0.581300000000     0.916750000000   
C      0.080625000000     0.516450000000     0.763050000000   
H      0.050375000000     0.527700000000     0.771250000000   
C      0.166875000000     0.516150000000     0.768450000000   
H      0.195750000000     0.527400000000     0.780550000000   
C      0.122775000000     0.532450000000     0.782500000000   
C      0.119525000000     0.568300000000     0.816650000000   
V      0.074950000000     0.875000000000     0.619580000000   
O      0.131225000000     0.875000000000     0.595800000000   
O      0.047050000000     0.918400000000     0.577750000000   
O      0.089625000000     0.918700000000     0.666750000000   
C      0.044375000000     0.983550000000     0.513050000000   
H      0.074625000000     0.972300000000     0.521250000000   
C      0.208125000000     0.983850000000     0.518450000000   
H      0.179250000000     0.972600000000     0.530550000000   
C      0.002225000000     0.967550000000     0.532500000000   
C      0.005475000000     0.931700000000     0.566650000000   
V      0.175050000000     0.625000000000     0.880420000000   
O      0.118775000000     0.625000000000     0.904200000000   
O      0.202950000000     0.668400000000     0.922250000000   
O      0.160375000000     0.668700000000     0.833250000000   
C      0.205625000000     0.733550000000     0.986950000000   
H      0.175375000000     0.722300000000     0.978750000000   
C      0.041875000000     0.733850000000     0.981550000000   
H      0.070750000000     0.722600000000     0.969450000000   
C      0.247775000000     0.717550000000     0.967500000000   
C      0.244525000000     0.681700000000     0.933350000000   
V      0.199950000000     0.875000000000     0.630420000000   
O      0.006225000000     0.875000000000     0.654200000000   
O      0.172050000000     0.831600000000     0.672250000000   
O      0.214625000000     0.831300000000     0.583250000000   
C      0.169375000000     0.766450000000     0.736950000000   
H      0.199625000000     0.777700000000     0.728750000000   
C      0.083125000000     0.766150000000     0.731550000000   
H      0.054250000000     0.777400000000     0.719450000000   
C      0.127225000000     0.782450000000     0.717500000000   
C      0.130475000000     0.818300000000     0.683350000000   
O      0.172050000000     0.918400000000     0.672250000000   
O      0.214625000000     0.918700000000     0.583250000000   
C      0.169375000000     0.983550000000     0.736950000000   
H      0.199625000000     0.972300000000     0.728750000000   
C      0.083125000000     0.983850000000     0.731550000000   
H      0.054250000000     0.972600000000     0.719450000000   
C      0.127225000000     0.967550000000     0.717500000000   
C      0.130475000000     0.931700000000     0.683350000000   
O      0.202950000000     0.581600000000     0.922250000000   
O      0.160375000000     0.581300000000     0.833250000000   
C      0.205625000000     0.516450000000     0.986950000000   
H      0.175375000000     0.527700000000     0.978750000000   
C      0.041875000000     0.516150000000     0.981550000000   
H      0.070750000000     0.527400000000     0.969450000000   
C      0.247775000000     0.532450000000     0.967500000000   
C      0.244525000000     0.568300000000     0.933350000000   
O      0.047050000000     0.831600000000     0.577750000000   
O      0.089625000000     0.831300000000     0.666750000000   
C      0.044375000000     0.766450000000     0.513050000000   
H      0.074625000000     0.777700000000     0.521250000000   
C      0.208125000000     0.766150000000     0.518450000000   
H      0.179250000000     0.777400000000     0.530550000000   
C      0.002225000000     0.782450000000     0.532500000000   
C      0.005475000000     0.818300000000     0.566650000000   
O      0.077950000000     0.668400000000     0.827750000000   
O      0.035375000000     0.668700000000     0.916750000000   
C      0.080625000000     0.733550000000     0.763050000000   
H      0.050375000000     0.722300000000     0.771250000000   
C      0.166875000000     0.733850000000     0.768450000000   
H      0.195750000000     0.722600000000     0.780550000000   
C      0.122775000000     0.717550000000     0.782500000000   
C      0.119525000000     0.681700000000     0.816650000000   
V      0.300050000000     0.125000000000     0.369580000000   
O      0.493775000000     0.125000000000     0.345800000000   
O      0.327950000000     0.081600000000     0.327750000000   
O      0.285375000000     0.081300000000     0.416750000000   
C      0.330625000000     0.016450000000     0.263050000000   
H      0.300375000000     0.027700000000     0.271250000000   
C      0.416875000000     0.016150000000     0.268450000000   
H      0.445750000000     0.027400000000     0.280550000000   
C      0.372775000000     0.032450000000     0.282500000000   
C      0.369525000000     0.068300000000     0.316650000000   
V      0.324950000000     0.375000000000     0.119580000000   
O      0.381225000000     0.375000000000     0.095800000000   
O      0.297050000000     0.418400000000     0.077750000000   
O      0.339625000000     0.418700000000     0.166750000000   
C      0.294375000000     0.483550000000     0.013050000000   
H      0.324625000000     0.472300000000     0.021250000000   
C      0.458125000000     0.483850000000     0.018450000000   
H      0.429250000000     0.472600000000     0.030550000000   
C      0.252225000000     0.467550000000     0.032500000000   
C      0.255475000000     0.431700000000     0.066650000000   
V      0.425050000000     0.125000000000     0.380420000000   
O      0.368775000000     0.125000000000     0.404200000000   
O      0.452950000000     0.168400000000     0.422250000000   
O      0.410375000000     0.168700000000     0.333250000000   
C      0.455625000000     0.233550000000     0.486950000000   
H      0.425375000000     0.222300000000     0.478750000000   
C      0.291875000000     0.233850000000     0.481550000000   
H      0.320750000000     0.222600000000     0.469450000000   
C      0.497775000000     0.217550000000     0.467500000000   
C      0.494525000000     0.181700000000     0.433350000000   
V      0.449950000000     0.375000000000     0.130420000000   
O      0.256225000000     0.375000000000     0.154200000000   
O      0.422050000000     0.331600000000     0.172250000000   
O      0.464625000000     0.331300000000     0.083250000000   
C      0.419375000000     0.266450000000     0.236950000000   
H      0.449625000000     0.277700000000     0.228750000000   
C      0.333125000000     0.266150000000     0.231550000000   
H      0.304250000000     0.277400000000     0.219450000000   
C      0.377225000000     0.282450000000     0.217500000000   
C      0.380475000000     0.318300000000     0.183350000000   
O      0.422050000000     0.418400000000     0.172250000000   
O      0.464625000000     0.418700000000     0.083250000000   
C      0.419375000000     0.483550000000     0.236950000000   
H      0.449625000000     0.472300000000     0.228750000000   
C      0.333125000000     0.483850000000     0.231550000000   
H      0.304250000000     0.472600000000     0.219450000000   
C      0.377225000000     0.467550000000     0.217500000000   
C      0.380475000000     0.431700000000     0.183350000000   
O      0.452950000000     0.081600000000     0.422250000000   
O      0.410375000000     0.081300000000     0.333250000000   
C      0.455625000000     0.016450000000     0.486950000000   
H      0.425375000000     0.027700000000     0.478750000000   
C      0.291875000000     0.016150000000     0.481550000000   
H      0.320750000000     0.027400000000     0.469450000000   
C      0.497775000000     0.032450000000     0.467500000000   
C      0.494525000000     0.068300000000     0.433350000000   
O      0.297050000000     0.331600000000     0.077750000000   
O      0.339625000000     0.331300000000     0.166750000000   
C      0.294375000000     0.266450000000     0.013050000000   
H      0.324625000000     0.277700000000     0.021250000000   
C      0.458125000000     0.266150000000     0.018450000000   
H      0.429250000000     0.277400000000     0.030550000000   
C      0.252225000000     0.282450000000     0.032500000000   
C      0.255475000000     0.318300000000     0.066650000000   
O      0.327950000000     0.168400000000     0.327750000000   
O      0.285375000000     0.168700000000     0.416750000000   
C      0.330625000000     0.233550000000     0.263050000000   
H      0.300375000000     0.222300000000     0.271250000000   
C      0.416875000000     0.233850000000     0.268450000000   
H      0.445750000000     0.222600000000     0.280550000000   
C      0.372775000000     0.217550000000     0.282500000000   
C      0.369525000000     0.181700000000     0.316650000000   
V      0.300050000000     0.125000000000     0.869580000000   
O      0.493775000000     0.125000000000     0.845800000000   
O      0.327950000000     0.081600000000     0.827750000000   
O      0.285375000000     0.081300000000     0.916750000000   
C      0.330625000000     0.016450000000     0.763050000000   
H      0.300375000000     0.027700000000     0.771250000000   
C      0.416875000000     0.016150000000     0.768450000000   
H      0.445750000000     0.027400000000     0.780550000000   
C      0.372775000000     0.032450000000     0.782500000000   
C      0.369525000000     0.068300000000     0.816650000000   
V      0.324950000000     0.375000000000     0.619580000000   
O      0.381225000000     0.375000000000     0.595800000000   
O      0.297050000000     0.418400000000     0.577750000000   
O      0.339625000000     0.418700000000     0.666750000000   
C      0.294375000000     0.483550000000     0.513050000000   
H      0.324625000000     0.472300000000     0.521250000000   
C      0.458125000000     0.483850000000     0.518450000000   
H      0.429250000000     0.472600000000     0.530550000000   
C      0.252225000000     0.467550000000     0.532500000000   
C      0.255475000000     0.431700000000     0.566650000000   
V      0.425050000000     0.125000000000     0.880420000000   
O      0.368775000000     0.125000000000     0.904200000000   
O      0.452950000000     0.168400000000     0.922250000000   
O      0.410375000000     0.168700000000     0.833250000000   
C      0.455625000000     0.233550000000     0.986950000000   
H      0.425375000000     0.222300000000     0.978750000000   
C      0.291875000000     0.233850000000     0.981550000000   
H      0.320750000000     0.222600000000     0.969450000000   
C      0.497775000000     0.217550000000     0.967500000000   
C      0.494525000000     0.181700000000     0.933350000000   
V      0.449950000000     0.375000000000     0.630420000000   
O      0.256225000000     0.375000000000     0.654200000000   
O      0.422050000000     0.331600000000     0.672250000000   
O      0.464625000000     0.331300000000     0.583250000000   
C      0.419375000000     0.266450000000     0.736950000000   
H      0.449625000000     0.277700000000     0.728750000000   
C      0.333125000000     0.266150000000     0.731550000000   
H      0.304250000000     0.277400000000     0.719450000000   
C      0.377225000000     0.282450000000     0.717500000000   
C      0.380475000000     0.318300000000     0.683350000000   
O      0.422050000000     0.418400000000     0.672250000000   
O      0.464625000000     0.418700000000     0.583250000000   
C      0.419375000000     0.483550000000     0.736950000000   
H      0.449625000000     0.472300000000     0.728750000000   
C      0.333125000000     0.483850000000     0.731550000000   
H      0.304250000000     0.472600000000     0.719450000000   
C      0.377225000000     0.467550000000     0.717500000000   
C      0.380475000000     0.431700000000     0.683350000000   
O      0.452950000000     0.081600000000     0.922250000000   
O      0.410375000000     0.081300000000     0.833250000000   
C      0.455625000000     0.016450000000     0.986950000000   
H      0.425375000000     0.027700000000     0.978750000000   
C      0.291875000000     0.016150000000     0.981550000000   
H      0.320750000000     0.027400000000     0.969450000000   
C      0.497775000000     0.032450000000     0.967500000000   
C      0.494525000000     0.068300000000     0.933350000000   
O      0.297050000000     0.331600000000     0.577750000000   
O      0.339625000000     0.331300000000     0.666750000000   
C      0.294375000000     0.266450000000     0.513050000000   
H      0.324625000000     0.277700000000     0.521250000000   
C      0.458125000000     0.266150000000     0.518450000000   
H      0.429250000000     0.277400000000     0.530550000000   
C      0.252225000000     0.282450000000     0.532500000000   
C      0.255475000000     0.318300000000     0.566650000000   
O      0.327950000000     0.168400000000     0.827750000000   
O      0.285375000000     0.168700000000     0.916750000000   
C      0.330625000000     0.233550000000     0.763050000000   
H      0.300375000000     0.222300000000     0.771250000000   
C      0.416875000000     0.233850000000     0.768450000000   
H      0.445750000000     0.222600000000     0.780550000000   
C      0.372775000000     0.217550000000     0.782500000000   
C      0.369525000000     0.181700000000     0.816650000000   
V      0.300050000000     0.625000000000     0.369580000000   
O      0.493775000000     0.625000000000     0.345800000000   
O      0.327950000000     0.581600000000     0.327750000000   
O      0.285375000000     0.581300000000     0.416750000000   
C      0.330625000000     0.516450000000     0.263050000000   
H      0.300375000000     0.527700000000     0.271250000000   
C      0.416875000000     0.516150000000     0.268450000000   
H      0.445750000000     0.527400000000     0.280550000000   
C      0.372775000000     0.532450000000     0.282500000000   
C      0.369525000000     0.568300000000     0.316650000000   
V      0.324950000000     0.875000000000     0.119580000000   
O      0.381225000000     0.875000000000     0.095800000000   
O      0.297050000000     0.918400000000     0.077750000000   
O      0.339625000000     0.918700000000     0.166750000000   
C      0.294375000000     0.983550000000     0.013050000000   
H      0.324625000000     0.972300000000     0.021250000000   
C      0.458125000000     0.983850000000     0.018450000000   
H      0.429250000000     0.972600000000     0.030550000000   
C      0.252225000000     0.967550000000     0.032500000000   
C      0.255475000000     0.931700000000     0.066650000000   
V      0.425050000000     0.625000000000     0.380420000000   
O      0.368775000000     0.625000000000     0.404200000000   
O      0.452950000000     0.668400000000     0.422250000000   
O      0.410375000000     0.668700000000     0.333250000000   
C      0.455625000000     0.733550000000     0.486950000000   
H      0.425375000000     0.722300000000     0.478750000000   
C      0.291875000000     0.733850000000     0.481550000000   
H      0.320750000000     0.722600000000     0.469450000000   
C      0.497775000000     0.717550000000     0.467500000000   
C      0.494525000000     0.681700000000     0.433350000000   
V      0.449950000000     0.875000000000     0.130420000000   
O      0.256225000000     0.875000000000     0.154200000000   
O      0.422050000000     0.831600000000     0.172250000000   
O      0.464625000000     0.831300000000     0.083250000000   
C      0.419375000000     0.766450000000     0.236950000000   
H      0.449625000000     0.777700000000     0.228750000000   
C      0.333125000000     0.766150000000     0.231550000000   
H      0.304250000000     0.777400000000     0.219450000000   
C      0.377225000000     0.782450000000     0.217500000000   
C      0.380475000000     0.818300000000     0.183350000000   